; ============================================================
; Part 2 — Scenario 1: Person IS a Dependent (Qualifying Child)
; ============================================================
;
; Scenario Description (generated by Claude):
; --------------------------------------------
; Taxpayer:  Alice (age 35, U.S. citizen, not a dependent of anyone else)
; Potential Dependent: Emma (age 10, Alice's biological daughter)
;
; Facts:
;   - Emma is Alice's biological daughter (child relationship ✓)
;   - Emma lives with Alice all 12 months of the tax year ✓
;   - Emma is 10 years old (under 19) ✓
;   - Alice provides 100% of Emma's support; Emma provides 0% of her own support ✓
;   - Emma did not file a joint return (she is 10 years old) ✓
;   - Emma is a U.S. citizen ✓
;   - Alice is not a dependent of anyone else ✓
;
; Expected Result: Emma IS a dependent of Alice (qualifying child).
; ============================================================

; --- Variable declarations ---
(declare-const is_child_or_descendant Bool)
(declare-const is_sibling_or_descendant Bool)
(declare-const months_same_abode Int)
(declare-const age Int)
(declare-const is_full_time_student Bool)
(declare-const is_permanently_disabled Bool)
(declare-const d_self_support_ratio Real)
(declare-const filed_joint_return Bool)
(declare-const filed_joint_only_for_refund Bool)
(declare-const is_us_citizen_or_national Bool)
(declare-const is_resident_us_canada_mexico Bool)
(declare-const taxpayer_is_dependent_of_another Bool)
(declare-const is_specified_relative Bool)
(declare-const is_household_member_full_year Bool)
(declare-const gross_income Int)
(declare-const exemption_amount Int)
(declare-const taxpayer_support_ratio Real)
(declare-const is_qc_of_any_taxpayer Bool)

; --- §152 rule definitions (same as part1_cot.smt2) ---
(define-fun qc_relationship_test () Bool
  (or is_child_or_descendant is_sibling_or_descendant))
(define-fun qc_residence_test () Bool
  (> months_same_abode 6))
(define-fun qc_age_test () Bool
  (or (< age 19)
      (and (< age 24) is_full_time_student)
      is_permanently_disabled))
(define-fun qc_support_test () Bool
  (not (> d_self_support_ratio (/ 1.0 2.0))))
(define-fun no_joint_return_test () Bool
  (or (not filed_joint_return) filed_joint_only_for_refund))
(define-fun is_qualifying_child () Bool
  (and qc_relationship_test qc_residence_test qc_age_test
       qc_support_test no_joint_return_test))

(define-fun qr_not_qc_test () Bool
  (not is_qc_of_any_taxpayer))
(define-fun qr_relationship_test () Bool
  (or is_specified_relative is_household_member_full_year))
(define-fun qr_income_test () Bool
  (< gross_income exemption_amount))
(define-fun qr_support_test () Bool
  (> taxpayer_support_ratio (/ 1.0 2.0)))
(define-fun is_qualifying_relative () Bool
  (and qr_not_qc_test qr_relationship_test qr_income_test qr_support_test))

(define-fun passes_exceptions () Bool
  (and no_joint_return_test
       (or is_us_citizen_or_national is_resident_us_canada_mexico)
       (not taxpayer_is_dependent_of_another)))

(define-fun is_dependent () Bool
  (and (or is_qualifying_child is_qualifying_relative)
       passes_exceptions))

; --- Scenario-specific facts (Emma's case) ---
(assert (= exemption_amount 4700))
(assert (= is_child_or_descendant true))          ; biological daughter
(assert (= is_sibling_or_descendant false))
(assert (= months_same_abode 12))                 ; lives with Alice all year
(assert (= age 10))                               ; age 10
(assert (= is_full_time_student false))           ; not applicable
(assert (= is_permanently_disabled false))
(assert (= d_self_support_ratio 0.0))             ; Alice provides 100% of support
(assert (= filed_joint_return false))             ; did not file joint return
(assert (= filed_joint_only_for_refund false))
(assert (= is_us_citizen_or_national true))       ; U.S. citizen
(assert (= is_resident_us_canada_mexico false))
(assert (= taxpayer_is_dependent_of_another false)) ; Alice is not a dependent
(assert (= is_specified_relative true))
(assert (= is_household_member_full_year true))
(assert (= gross_income 0))                       ; no income (child)
(assert (= taxpayer_support_ratio 1.0))           ; Alice provides 100%
(assert (= is_qc_of_any_taxpayer false))

; --- Verify: Emma IS a dependent ---
(assert is_dependent)
(check-sat)
(get-value (is_qualifying_child))
(get-value (is_qualifying_relative))
(get-value (is_dependent))
